9
2147483647 88 41 39 78 36 97 1 2 
88 2147483647 72 73 61 27 63 42 10 
41 72 2147483647 42 90 58 33 46 63 
39 73 42 2147483647 87 60 74 56 53 
78 61 90 87 2147483647 51 20 66 26 
36 27 58 60 51 2147483647 97 19 55 
97 63 33 74 20 97 2147483647 20 10 
1 42 46 56 66 19 20 2147483647 71 
2 10 63 53 26 55 10 71 2147483647 
